0 4791.77
1 4791.77
2 4791.77
3 4791.77
4 4786.13
5 4786.13
6 4786.13
7 4755.80
8 4755.80
9 4755.80
10 4755.80
11 4755.80
12 4743.85
13 4738.25
14 4738.25
15 4738.25
16 4738.25
17 4738.25
18 4738.25
19 4738.25
20 4738.25
21 4734.20
22 4669.35
23 4669.35
24 4669.35
25 4669.35
26 4669.35
27 4669.35
28 4669.35
29 4669.35
30 4669.35
31 4669.35
32 4667.95
33 4667.95
34 4667.95
35 4644.39
36 4644.39
37 4644.39
38 4624.18
39 4624.18
40 4624.18
41 4624.18
42 4624.18
43 4624.18
44 4624.18
45 4624.18
46 4624.18
47 4624.18
48 4624.18
49 4624.18
50 4619.64
51 4619.64
52 4619.64
53 4619.64
54 4619.64
55 4619.64
56 4619.64
57 4619.64
58 4619.64
59 4619.64
60 4619.64
61 4619.64
62 4619.64
63 4619.64
64 4619.64
65 4619.64
66 4619.64
67 4619.64
68 4619.64
69 4619.64
70 4619.64
71 4619.64
72 4619.64
73 4619.64
74 4619.64
75 4619.64
76 4612.38
77 4612.38
78 4612.38
79 4612.38
80 4612.38
81 4612.38
82 4612.38
83 4612.38
84 4612.38
85 4612.38
86 4612.38
87 4612.38
88 4585.02
89 4585.02
90 4585.02
91 4585.02
92 4585.02
93 4585.02
94 4585.02
95 4585.02
96 4585.02
97 4585.02
98 4585.02
99 4585.02
100 4585.02
101 4585.02
102 4585.02
103 4585.02
104 4585.02
105 4585.02
106 4585.02
107 4585.02
108 4585.02
109 4585.02
110 4585.02
111 4585.02
112 4585.02
113 4585.02
114 4585.02
115 4585.02
116 4585.02
117 4585.02
118 4585.02
119 4585.02
120 4585.02
121 4585.02
122 4585.02
123 4585.02
124 4585.02
125 4585.02
126 4585.02
127 4585.02
128 4584.25
129 4584.25
130 4584.25
131 4584.25
132 4584.25
133 4584.25
134 4584.25
135 4584.25
136 4584.25
137 4551.53
138 4551.53
139 4551.53
140 4551.53
141 4551.53
142 4551.53
143 4551.53
144 4551.53
145 4551.53
146 4551.53
147 4551.53
148 4551.53
149 4551.53
150 4551.53
151 4551.53
152 4551.53
153 4551.53
154 4551.53
155 4551.53
156 4551.53
157 4551.53
158 4551.53
159 4551.53
160 4551.53
161 4551.53
162 4551.53
163 4551.53
164 4551.53
165 4551.53
166 4551.53
167 4551.53
168 4551.53
169 4551.53
170 4551.53
171 4551.53
172 4551.53
173 4551.53
174 4551.53
175 4551.53
176 4551.53
177 4551.53
178 4551.53
179 4551.53
180 4551.53
181 4551.53
182 4551.53
183 4551.53
184 4551.53
185 4551.53
186 4551.53
187 4551.53
188 4551.53
189 4551.53
190 4551.53
191 4551.53
192 4551.53
193 4551.53
194 4551.53
195 4551.53
196 4551.53
197 4551.53
198 4551.53
199 4551.53
200 4551.53
201 4551.53
202 4551.53
203 4551.53
204 4551.53
205 4551.53
206 4551.53
207 4551.53
208 4551.53
209 4551.53
210 4551.53
211 4551.53
212 4551.53
213 4551.53
214 4551.53
215 4551.53
216 4551.53
217 4551.53
218 4551.53
219 4551.53
220 4551.53
221 4551.53
222 4551.53
223 4551.53
224 4551.53
225 4551.53
226 4551.53
227 4551.53
228 4551.53
229 4551.53
230 4551.53
231 4551.53
232 4551.53
233 4551.53
234 4551.53
235 4551.53
236 4551.53
237 4551.53
238 4551.53
239 4551.53
240 4551.53
241 4551.53
242 4551.53
243 4551.53
244 4551.53
245 4551.53
246 4551.53
247 4551.53
248 4551.53
249 4551.53
250 4551.53
251 4551.53
252 4551.53
253 4551.53
254 4551.53
255 4551.53
256 4551.53
257 4551.53
258 4551.53
259 4551.53
260 4551.53
261 4551.53
262 4551.53
263 4551.53
264 4551.53
265 4551.53
266 4551.53
267 4551.53
268 4551.53
269 4551.53
270 4551.53
271 4551.53
272 4551.53
273 4542.71
274 4542.71
275 4542.71
276 4542.71
277 4542.71
278 4542.71
279 4542.71
280 4542.71
281 4542.71
282 4542.71
283 4542.71
284 4542.71
285 4542.71
286 4542.71
287 4542.71
288 4542.71
289 4542.71
290 4542.71
291 4542.71
292 4542.71
293 4542.71
294 4542.71
295 4542.71
296 4542.71
297 4542.71
298 4542.71
299 4542.71
300 4542.71
301 4542.71
302 4542.71
303 4542.71
304 4542.71
305 4542.71
306 4542.71
307 4542.71
308 4542.71
309 4542.71
310 4542.71
311 4542.71
312 4542.71
313 4542.71
314 4542.71
315 4542.71
316 4542.71
317 4542.71
318 4542.71
319 4542.71
320 4542.71
321 4542.71
322 4542.71
323 4542.71
324 4542.71
325 4542.71
326 4542.71
327 4542.71
328 4542.71
329 4542.71
330 4542.71
331 4542.71
332 4542.71
333 4542.71
334 4542.71
335 4542.71
336 4542.71
337 4542.71
338 4542.71
339 4542.71
340 4542.71
341 4542.71
342 4542.71
343 4542.71
344 4542.71
345 4542.71
346 4542.71
347 4542.71
348 4542.71
349 4542.71
350 4542.71
351 4542.71
352 4542.71
353 4542.71
354 4542.71
355 4542.71
356 4542.71
357 4542.71
358 4542.71
359 4542.71
360 4542.71
361 4542.71
362 4542.71
363 4542.71
364 4542.71
365 4542.71
366 4542.71
367 4542.71
368 4542.71
369 4542.71
370 4542.71
371 4542.71
372 4542.71
373 4542.71
374 4542.71
375 4542.71
376 4542.71
377 4542.71
378 4542.71
379 4542.71
380 4542.71
381 4542.71
382 4542.71
383 4542.71
384 4542.71
385 4542.71
386 4542.71
387 4542.71
388 4542.71
389 4542.71
390 4542.71
391 4542.71
392 4534.26
393 4534.26
394 4534.26
395 4534.26
396 4534.26
397 4534.26
398 4534.26
399 4534.26
400 4534.26
401 4534.26
402 4534.26
403 4534.26
404 4534.26
405 4534.26
406 4534.26
407 4534.26
408 4534.26
409 4534.26
410 4534.26
411 4534.26
412 4534.26
413 4534.26
414 4534.26
415 4534.26
416 4534.26
417 4534.26
418 4534.26
419 4534.26
420 4534.26
421 4534.26
422 4534.26
423 4534.26
424 4534.26
425 4534.26
426 4534.26
427 4534.26
428 4534.26
429 4534.26
430 4534.26
431 4534.26
432 4534.26
433 4534.26
434 4534.26
435 4534.26
436 4534.26
437 4534.26
438 4534.26
439 4534.26
440 4534.26
441 4534.26
442 4534.26
443 4534.26
444 4534.26
445 4534.26
446 4534.26
447 4534.26
448 4534.26
449 4534.26
450 4534.26
451 4534.26
452 4534.26
453 4534.26
454 4534.26
455 4534.26
456 4534.26
457 4534.26
458 4534.26
459 4534.26
460 4534.26
461 4534.26
462 4534.26
463 4534.26
464 4534.26
465 4534.26
466 4534.26
467 4534.26
468 4534.26
469 4534.26
470 4534.26
471 4534.26
472 4534.26
473 4534.26
474 4534.26
475 4534.26
476 4534.26
477 4534.26
478 4534.26
479 4534.26
480 4534.26
481 4534.26
482 4534.26
483 4534.26
484 4534.26
485 4534.26
486 4534.26
487 4534.26
488 4534.26
489 4534.26
490 4534.26
491 4534.26
492 4534.26
493 4534.26
494 4534.26
495 4534.26
496 4534.26
497 4534.26
498 4534.26
499 4534.26
1 5 9 4 0 0 